0 26 36
1 37 39
2 33 39
3 30 39
4 36 39
5 38 38
6 38 38
7 32 38
8 33 39
9 30 36
10 20 35
11 32 32
12 29 32
13 25 32
14 20 29
15 27 27
16 26 28
17 24 27
18 15 25
19 23 24
20 21 22
21 10 23
22 18 20
23 19 19
24 16 19
25 9 17
26 9 16
27 3 13
28 12 13
29 8 10
30 8 10
31 7 10
32 2 7
33 5 7
34 4 6
35 2 2
36 1 2
37 1 1

